
  18    0


   0   9 2 3 4 5 6 7 8 16 17 
  10   3 15 11 10 
   7   3 14 10 9 
   2   2 11 10 
   6   1 13 
   1   1 12 
   7   1 9 
   8   1 9 
   1   1 18
   4   1 18
   5   1 18
   8   1 18
   1   1 18
   2   1 18
   2   1 18
  10   1 18
   1   1 18
   0   0 
